c 219_4_checker.cnf
c
c field = 219
c formula set type = 4_checker
c
p cnf 5 26
428 
430 
432 
434 
-426 
429 
431 
433 
435 
-427 
428 
430 
432 
434 
-438 
429 
431 
433 
435 
-439 
430 
432 
434 
438 
-428 
431 
433 
435 
439 
-429 
430 
432 
434 
438 
-440 
431 
433 
435 
439 
-441 
432 
434 
438 
440 
-430 
433 
435 
439 
441 
-431 
432 
434 
438 
440 
-442 
433 
435 
439 
441 
-443 
434 
438 
440 
442 
-432 
435 
439 
441 
443 
-433 
434 
438 
440 
442 
-444 
435 
439 
441 
443 
-445 
438 
440 
442 
444 
-434 
439 
441 
443 
445 
-435 
438 
440 
442 
444 
-446 
439 
441 
443 
445 
-447 
316 
346 
376 
406 
-286 
317 
347 
377 
407 
-287 
308 
340 
372 
404 
-276 
309 
341 
373 
405 
-277 
324 
352 
380 
408 
-296 
325 
353 
381 
409 
-297 
